TCS_Benchmarks/redos_fix/regexlib2_output_distinct_1999_1998_0_0.txt
.*
(.*)([Vv][1Ii]agr)(.*)
.*